5	6	7	8	9	10	11	12	13	14	15	16	17	18	19	20	21	22	23	24
	2	4	3	4	1	5	1	5	1	5	1	1	0	6	1	5	1	5	2
	8	9	9	10	9	13	9	13	9	13	9	6	4	11	9	13	9	22
	16	13	15	17	17	21	17	21	17	21	17	10	9	16	13	21	17	42
	24	19	21	23	25	29	25	29	25	29	25	15	13	22	17	29	25
	29	24	27	29	33	37	33	37	33	37	33	19	18	30	25	37	33
	34	30	33	37	41	45	41	45	41	45	39	24	22	37	33	45	41
	39	36	41	45	49	53	49	53	49	53	43	28	27	45	37	53	49
	44	40	49	53	57		57		57	57	48	33	31	53	41		57
	49	46	57								52	37	36		49
	54	51									57	42	42		57
	58	57										46	49
												51	53
												55	59